0 57 64 8 26 49 64 47 46
57 0 88 54 34 83 37 43 27
64 88 0 57 56 29 60 44 63
8 54 57 0 23 43 63 44 41
26 34 56 23 0 50 40 22 20
49 83 29 43 50 0 80 63 70
64 37 60 63 40 80 0 17 22
47 43 44 44 22 63 17 0 19
46 27 63 41 20 70 22 19 0